70 0
89 72
132 130
20 56
110 60
51 137
45 100
58 102
117 70
130 126
140 130
31 52
8 85
22 110
46 26
122 21
47 123
50 93
13 33
102 93
127 65
125 61
39 117
14 80
100 88
57 118
46 68
123 45
134 78
138 27
140 100
98 36
106 30
145 63
120 118
108 104
42 52
135 65
132 45
5 46
20 77
51 40
5 105
30 35
107 85
32 65
25 70
24 90
98 58
130 105
40 120